SCIP version 5.0.0 [precision: 8 byte] [memory: block] [mode: optimized] [LP solver: NONE] [GitHash: 3bbd232]
Copyright (C) 2002-2017 Konrad-Zuse-Zentrum fuer Informationstechnik Berlin (ZIB)

External codes: 
  Readline EditLine w  GNU library for command line editing (gnu.org/s/readline)
  CppAD 20160000.1     Algorithmic Differentiation of C++ algorithms developed by B. Bell (www.coin-or.org/CppAD)
  ZLIB 1.2.5           General purpose compression library by J. Gailly and M. Adler (zlib.net)
  GMP 6.1.2            GNU Multiple Precision Arithmetic Library developed by T. Granlund (gmplib.org)

user parameter file <scip.set> not found - using default parameters

read problem <../../Split_data/output/biodeg/9/1_sample_biodeg.logreg>
============

File name	:	../../Split_data/output/biodeg/9/1_sample_biodeg.logreg
Problem name 	:	1_sample_biodeg
Number of data	:	844
Number of var	:	41
The given data has linear dependence
1 sets of column vector are linearly dependent:
{ 19}, 

[dim=1] time: 0.028522
[dim=2] time: 0.067034
[dim=3] time: 0.1051
[dim=4] time: 0.137008
[dim=5] time: 0.169335
[dim=6] time: 0.198955
[dim=7] time: 0.226097
[dim=8] time: 0.250702
[dim=9] time: 0.27596
[dim=10] time: 0.30237
[dim=11] time: 0.328076
[dim=12] time: 0.352964
[dim=13] time: 0.369809
[dim=14] time: 0.386804
[dim=15] time: 0.404211
[dim=16] time: 0.421921
[dim=17] time: 0.43883
[dim=18] time: 0.45674
[dim=19] time: 0.474566
[dim=20] time: 0.491864
[dim=21] time: 0.509324
[dim=22] time: 0.525976
[dim=23] Time of forward = 0.542246sec.
AIC: 529.94
k: 22

[dim=40] time: 0.1742
[dim=39] time: 0.226769
[dim=38] time: 0.279111
[dim=37] time: 0.325733
[dim=36] time: 0.364811
[dim=35] time: 0.40615
[dim=34] time: 0.438575
[dim=33] time: 0.494327
[dim=32] time: 0.533124
[dim=31] time: 0.57221
[dim=30] time: 0.605925
[dim=29] time: 0.639597
[dim=28] time: 0.680017
[dim=27] time: 0.710977
[dim=26] time: 0.742166
[dim=25] time: 0.768308
[dim=24] Time of backward = 0.792174sec.
AIC: 529.832
k: 25
